s td 38 18 55
b 1 8 22 30
b 2 1 18 25 46
b 3 15 21 26 55
b 4 27 39 49 55
b 5 1 2 3 4 5 9 13 15 23 25 33 34 35 43 49 51 54 55
b 6 1 3 4 5 9 13 15 23 25 33 34 35 43 46 49 51 54 55
b 7 3 4 5 9 13 15 23 25 32 33 34 35 43 46 49 51 54 55
b 8 3 4 5 9 13 15 23 32 33 34 35 45 46 49 51 54 55
b 9 3 6 13 15 32 34 45 49 54
b 10 6 13 15 32 34 37 45 49
b 11 34 37 45 47 49
b 12 4 5 9 11 13 15 23 32 33 34 35 45 46 49 51 54 55
b 13 4 5 11 13 15 17 23 32 33 35 45 46 49 51 54 55
b 14 4 5 11 15 17 32 33 35 45 46 49 51 53 54 55
b 15 4 8 15 17 32 33 35 45 46 49 51 53 54 55
b 16 4 8 15 19 32 33 35 45 49 51 53 54 55
b 17 4 8 15 19 22 32 35 49 51 53 54 55
b 18 4 8 15 19 22 32 39 49 51 54 55
b 19 4 10 15 19 22 32 39 51 54 55
b 20 4 10 15 22 26 51 55
b 21 8 12 33 46 51 54
b 22 11 17 46 48 53
b 23 1 2 3 4 9 13 15 23 25 33 34 35 40 43 49 51 54 55
b 24 1 2 4 9 13 14 15 23 25 33 34 35 40 43 49 51 54 55
b 25 1 2 4 13 14 15 23 33 34 35 40 43 44 49 51 54 55
b 26 1 2 13 14 15 29 33 34 35 40 43 44 51 55
b 27 1 2 14 29 33 34 35 40 43 44 51 52 55
b 28 1 2 29 33 38 43 51 52 55
b 29 1 2 29 33 36 38 51 55
b 30 1 2 7 36 55
b 31 1 4 14 15 34 35 40 42 44 51 55
b 32 1 4 14 15 34 35 42 44 50 51
b 33 1 14 15 28 34 35 42 44 50
b 34 1 4 9 13 14 15 23 31 40 49 54
b 35 1 9 13 15 20 31 40 49
b 36 9 13 20 40 41 49
b 37 16 25 43 49
b 38 2 24 25 54
1 17
2 6
3 20
4 18
5 6
5 23
5 37
5 38
6 7
7 8
8 9
8 12
9 10
10 11
12 13
13 14
14 15
14 22
15 16
15 21
16 17
17 18
18 19
19 20
23 24
24 25
24 34
25 26
25 31
26 27
27 28
28 29
29 30
31 32
32 33
34 35
35 36
